p cnf 87 309
37 38 39 40 41 42 43 0
44 45 46 47 48 49 50 51 52 53 0
63 64 65 66 67 68 69 0
70 71 72 73 74 75 76 77 78 79 0
-1 -9 0
-1 -18 0
-1 -28 0
-1 -37 0
-1 -44 0
-1 -54 0
-1 -80 0
-9 -18 0
-9 -28 0
-9 -37 0
-9 -44 0
-9 -54 0
-9 -80 0
-18 -28 0
-18 -37 0
-18 -44 0
-18 -54 0
-18 -80 0
-28 -37 0
-28 -44 0
-28 -54 0
-28 -80 0
-37 -44 0
-37 -54 0
-37 -80 0
-44 -54 0
-44 -80 0
-54 -80 0
-2 -10 0
-2 -19 0
-2 -45 0
-2 -55 0
-2 -63 0
-2 -70 0
-10 -19 0
-10 -45 0
-10 -55 0
-10 -63 0
-10 -70 0
-19 -45 0
-19 -55 0
-19 -63 0
-19 -70 0
-45 -55 0
-45 -63 0
-45 -70 0
-55 -63 0
-55 -70 0
-63 -70 0
-11 -20 0
-11 -29 0
-11 -38 0
-11 -56 0
-11 -64 0
-11 -71 0
-11 -81 0
-20 -29 0
-20 -38 0
-20 -56 0
-20 -64 0
-20 -71 0
-20 -81 0
-29 -38 0
-29 -56 0
-29 -64 0
-29 -71 0
-29 -81 0
-38 -56 0
-38 -64 0
-38 -71 0
-38 -81 0
-56 -64 0
-56 -71 0
-56 -81 0
-64 -71 0
-64 -81 0
-71 -81 0
-3 -12 0
-3 -21 0
-3 -30 0
-3 -46 0
-3 -57 0
-3 -65 0
-3 -72 0
-12 -21 0
-12 -30 0
-12 -46 0
-12 -57 0
-12 -65 0
-12 -72 0
-21 -30 0
-21 -46 0
-21 -57 0
-21 -65 0
-21 -72 0
-30 -46 0
-30 -57 0
-30 -65 0
-30 -72 0
-46 -57 0
-46 -65 0
-46 -72 0
-57 -65 0
-57 -72 0
-65 -72 0
-4 -13 0
-4 -22 0
-4 -31 0
-4 -39 0
-4 -47 0
-4 -58 0
-4 -66 0
-4 -73 0
-4 -82 0
-13 -22 0
-13 -31 0
-13 -39 0
-13 -47 0
-13 -58 0
-13 -66 0
-13 -73 0
-13 -82 0
-22 -31 0
-22 -39 0
-22 -47 0
-22 -58 0
-22 -66 0
-22 -73 0
-22 -82 0
-31 -39 0
-31 -47 0
-31 -58 0
-31 -66 0
-31 -73 0
-31 -82 0
-39 -47 0
-39 -58 0
-39 -66 0
-39 -73 0
-39 -82 0
-47 -58 0
-47 -66 0
-47 -73 0
-47 -82 0
-58 -66 0
-58 -73 0
-58 -82 0
-66 -73 0
-66 -82 0
-73 -82 0
-23 -32 0
-23 -40 0
-23 -48 0
-23 -59 0
-23 -74 0
-23 -83 0
-32 -40 0
-32 -48 0
-32 -59 0
-32 -74 0
-32 -83 0
-40 -48 0
-40 -59 0
-40 -74 0
-40 -83 0
-48 -59 0
-48 -74 0
-48 -83 0
-59 -74 0
-59 -83 0
-74 -83 0
-5 -14 0
-5 -24 0
-5 -33 0
-5 -41 0
-5 -49 0
-5 -67 0
-5 -75 0
-5 -84 0
-14 -24 0
-14 -33 0
-14 -41 0
-14 -49 0
-14 -67 0
-14 -75 0
-14 -84 0
-24 -33 0
-24 -41 0
-24 -49 0
-24 -67 0
-24 -75 0
-24 -84 0
-33 -41 0
-33 -49 0
-33 -67 0
-33 -75 0
-33 -84 0
-41 -49 0
-41 -67 0
-41 -75 0
-41 -84 0
-49 -67 0
-49 -75 0
-49 -84 0
-67 -75 0
-67 -84 0
-75 -84 0
-6 -15 0
-6 -25 0
-6 -42 0
-6 -50 0
-6 -60 0
-6 -76 0
-6 -85 0
-15 -25 0
-15 -42 0
-15 -50 0
-15 -60 0
-15 -76 0
-15 -85 0
-25 -42 0
-25 -50 0
-25 -60 0
-25 -76 0
-25 -85 0
-42 -50 0
-42 -60 0
-42 -76 0
-42 -85 0
-50 -60 0
-50 -76 0
-50 -85 0
-60 -76 0
-60 -85 0
-76 -85 0
-7 -16 0
-7 -34 0
-7 -51 0
-7 -68 0
-7 -77 0
-7 -86 0
-16 -34 0
-16 -51 0
-16 -68 0
-16 -77 0
-16 -86 0
-34 -51 0
-34 -68 0
-34 -77 0
-34 -86 0
-51 -68 0
-51 -77 0
-51 -86 0
-68 -77 0
-68 -86 0
-77 -86 0
-26 -35 0
-26 -43 0
-26 -52 0
-26 -61 0
-26 -69 0
-26 -78 0
-26 -87 0
-35 -43 0
-35 -52 0
-35 -61 0
-35 -69 0
-35 -78 0
-35 -87 0
-43 -52 0
-43 -61 0
-43 -69 0
-43 -78 0
-43 -87 0
-52 -61 0
-52 -69 0
-52 -78 0
-52 -87 0
-61 -69 0
-61 -78 0
-61 -87 0
-69 -78 0
-69 -87 0
-78 -87 0
-8 -17 0
-8 -27 0
-8 -36 0
-8 -53 0
-8 -62 0
-8 -79 0
-17 -27 0
-17 -36 0
-17 -53 0
-17 -62 0
-17 -79 0
-27 -36 0
-27 -53 0
-27 -62 0
-27 -79 0
-36 -53 0
-36 -62 0
-36 -79 0
-53 -62 0
-53 -79 0
-62 -79 0
